20 5
95 67 86 40 63 66 96 16 58 88 10 35 92 1 59 4 19 99 85 35 
41 36 18 35 31 48 71 89 38 19 33 94 38 3 82 47 24 71 91 90 
28 83 77 32 55 73 86 19 58 38 1 43 45 47 63 93 98 58 61 85 
84 53 42 43 64 11 79 76 34 54 8 12 18 40 53 62 34 81 35 49 
19 24 67 61 78 44 55 94 85 50 17 71 81 85 11 71 64 39 50 8 
